c File: instances/10_0.20_3.col
c
c Description: Random graph of size 10 vertices and P(0.2) of edges between any two vertices.
p col 10 45
e 1 9
e 2 3
e 2 4
e 2 8
e 2 10
e 3 8
e 3 9
e 3 10
e 5 8
e 8 9